PARAMETER_FILE = even/even_uncomplete_graph_new/de/par/random98.par
PROBLEM_FILE = even/even_uncomplete_graph_new/de/mat/random98.tsp
Successes/Runs = 0/10
Cost.min = 764, Cost.avg = 764.00, Cost.max = 764
Gap.min = 0.0000%, Gap.avg = 0.0000%, Gap.max = 0.0000%
Trials.min = 1000, Trials.avg = 1000.0, Trials.max = 1000
Time.min = 0.14 sec., Time.avg = 0.17 sec., Time.max = 0.21 sec.
Time.total = 1.71 sec.
请按任意键继续. . . 
